
Gurobi 9.5.0 (linux64) logging started Wed Nov  8 21:03:59 2023

Set parameter LogFile to value "/lustre1/scratch/348/vsc34888/JointResearch/05.Models/06.Benchmarking/G.Representative_days_based_on_Line_Benefit_NN_OC_fy_2/9n_ByStages_nc60/openStarNet_9n_ByStages_nc60.log"
Set parameter Method to value 2
Set parameter MIPFocus to value 1
Set parameter Presolve to value 2
Set parameter RINS to value 100
Set parameter MIPGap to value 0.01
Set parameter Threads to value 36
Set parameter TimeLimit to value 604800
Set parameter IterationLimit to value 760000000
Gurobi Optimizer version 9.5.0 build v9.5.0rc5 (linux64)
Thread count: 36 physical cores, 36 logical processors, using up to 36 threads
Optimize a model with 15723 rows, 8383 columns and 49117 nonzeros
Model fingerprint: 0x153e9349
Variable types: 8347 continuous, 36 integer (36 binary)
Coefficient statistics:
  Matrix range     [9e-04, 1e+03]
  Objective range  [1e+00, 1e+00]
  Bounds range     [4e-04, 2e+00]
  RHS range        [4e-04, 1e+00]
Presolve removed 5103 rows and 2584 columns
Presolve time: 0.08s
Presolved: 10620 rows, 5799 columns, 37623 nonzeros
Variable types: 5763 continuous, 36 integer (36 binary)
Found heuristic solution: objective 870.9443030
Root relaxation presolved: 10620 rows, 5799 columns, 37623 nonzeros

Root barrier log...

Ordering time: 0.00s

Barrier statistics:
 Dense cols : 36
 AA' NZ     : 1.429e+05
 Factor NZ  : 2.864e+05 (roughly 9 MB of memory)
 Factor Ops : 1.172e+07 (less than 1 second per iteration)
 Threads    : 36

                  Objective                Residual
Iter       Primal          Dual         Primal    Dual     Compl     Time
   0   3.77368900e+05 -3.33161652e+07  6.28e+00 2.85e+02  4.78e+03     0s
   1   5.76230983e+04 -9.54978190e+06  7.33e-01 1.71e-09  6.33e+02     0s
   2   1.35002637e+04 -1.41968209e+06  1.02e-02 4.84e-10  6.90e+01     0s
   3   4.27024485e+03 -3.26024906e+04  7.29e-13 1.08e-11  1.76e+00     0s
   4   1.00809645e+03 -7.01895227e+03  4.24e-13 2.09e-12  3.83e-01     0s
   5   6.44146236e+02 -1.77549505e+03  3.06e-13 9.09e-13  1.15e-01     0s
   6   4.29983386e+02 -6.03529027e+02  1.48e-13 9.09e-13  4.93e-02     0s
   7   2.37673374e+02 -1.65326245e+02  1.77e-13 9.09e-13  1.92e-02     0s
   8   1.45965890e+02  2.14345798e+01  2.22e-13 1.82e-12  5.94e-03     0s
   9   1.22509248e+02  7.05252700e+01  3.66e-13 9.09e-13  2.48e-03     0s
  10   9.48156809e+01  8.54607476e+01  8.02e-13 9.09e-13  4.46e-04     0s
  11   9.26469272e+01  8.85006879e+01  2.91e-12 9.09e-13  1.98e-04     0s
  12   9.21251953e+01  8.87737328e+01  3.82e-11 9.09e-13  1.60e-04     0s
  13   9.14538624e+01  8.93915973e+01  2.28e-11 9.09e-13  9.84e-05     0s
  14   9.09361840e+01  8.95196696e+01  9.90e-11 9.09e-13  6.76e-05     0s
  15   9.02963717e+01  9.00595001e+01  6.17e-11 9.09e-13  1.13e-05     0s
  16   9.02131673e+01  9.00826558e+01  2.56e-09 1.82e-12  6.23e-06     0s
  17   9.01854019e+01  9.01598926e+01  2.62e-10 9.09e-13  1.22e-06     0s
  18   9.01649107e+01  9.01633925e+01  2.73e-09 9.09e-13  7.24e-08     0s
  19   9.01634091e+01  9.01634045e+01  8.98e-12 9.09e-13  2.16e-10     0s
  20   9.01634070e+01  9.01634070e+01  2.30e-09 9.09e-13  2.16e-13     0s

Barrier solved model in 20 iterations and 0.39 seconds (0.29 work units)
Optimal objective 9.01634070e+01


Root relaxation: objective 9.016341e+01, 539 iterations, 0.28 seconds (0.13 work units)

    Nodes    |    Current Node    |     Objective Bounds      |     Work
 Expl Unexpl |  Obj  Depth IntInf | Incumbent    BestBd   Gap | It/Node Time

     0     0   90.16341    0    6  870.94430   90.16341  89.6%     -    0s
H    0     0                     205.1150430   90.16341  56.0%     -    0s
     0     0   97.66762    0    1  205.11504   97.66762  52.4%     -    0s
H    0     0                      98.4420150   97.66762  0.79%     -    0s

Cutting planes:
  Gomory: 1
  Implied bound: 2
  MIR: 101
  Relax-and-lift: 3

Explored 1 nodes (979 simplex iterations) in 0.63 seconds (0.42 work units)
Thread count was 36 (of 36 available processors)

Solution count 3: 98.442 205.115 870.944 

Optimal solution found (tolerance 1.00e-02)
Best objective 9.844201495365e+01, best bound 9.766761687090e+01, gap 0.7867%

Gurobi 9.5.0 (linux64) logging started Wed Nov  8 21:04:01 2023

Set parameter LogFile to value "/lustre1/scratch/348/vsc34888/JointResearch/05.Models/06.Benchmarking/G.Representative_days_based_on_Line_Benefit_NN_OC_fy_2/9n_ByStages_nc60/openStarNet_9n_ByStages_nc60.log"
Set parameter Method to value 2
Set parameter MIPFocus to value 1
Set parameter Presolve to value 2
Set parameter RINS to value 100
Set parameter MIPGap to value 0.01
Set parameter Threads to value 36
Set parameter TimeLimit to value 604800
Set parameter IterationLimit to value 760000000
No parameters matching 'relax_integrality' found
Gurobi Optimizer version 9.5.0 build v9.5.0rc5 (linux64)
Thread count: 36 physical cores, 36 logical processors, using up to 36 threads
Optimize a model with 15723 rows, 8347 columns and 40441 nonzeros
Model fingerprint: 0x0d71f51a
Coefficient statistics:
  Matrix range     [9e-04, 1e+03]
  Objective range  [1e+00, 1e+00]
  Bounds range     [4e-04, 2e+00]
  RHS range        [4e-04, 2e+01]
Presolve removed 13623 rows and 4662 columns
Presolve time: 0.02s
Presolved: 2100 rows, 3685 columns, 7945 nonzeros

Ordering time: 0.00s

Barrier statistics:
 AA' NZ     : 5.520e+03
 Factor NZ  : 2.142e+04 (roughly 2 MB of memory)
 Factor Ops : 2.633e+05 (less than 1 second per iteration)
 Threads    : 1

                  Objective                Residual
Iter       Primal          Dual         Primal    Dual     Compl     Time
   0   3.99397280e+05 -1.97286911e+07  3.42e+00 9.09e-13  5.78e+03     0s
   1   6.46136214e+04 -3.90685750e+06  3.96e-01 4.55e-12  7.09e+02     0s
   2   1.68650729e+04 -6.77340483e+05  2.62e-02 2.96e-12  9.07e+01     0s
   3   5.54416979e+03 -4.25739692e+04  1.32e-04 1.97e-12  5.95e+00     0s
   4   1.08768719e+03 -5.65512326e+03  2.43e-06 1.03e-12  8.34e-01     0s
   5   5.57705554e+02 -1.38941853e+03  3.12e-07 1.82e-12  2.41e-01     0s
   6   3.09259252e+02 -7.77118053e+02  1.25e-07 9.09e-13  1.34e-01     0s
   7   1.79027216e+02 -2.53595369e+02  3.28e-08 1.82e-12  5.35e-02     0s
   8   1.22908777e+02  2.35717804e+01  5.13e-09 1.82e-12  1.23e-02     0s
   9   1.03154270e+02  7.95096744e+01  4.91e-10 9.09e-13  2.92e-03     0s
  10   1.00230866e+02  9.24957677e+01  1.52e-10 9.09e-13  9.56e-04     0s
  11   9.87533054e+01  9.70484696e+01  2.13e-11 9.09e-13  2.11e-04     0s
  12   9.85155022e+01  9.80407643e+01  6.18e-12 9.09e-13  5.87e-05     0s
  13   9.84468966e+01  9.84204856e+01  3.39e-12 9.09e-13  3.26e-06     0s
  14   9.84422288e+01  9.84416256e+01  3.08e-11 1.82e-12  7.46e-08     0s
  15   9.84420152e+01  9.84420146e+01  1.18e-11 9.09e-13  7.46e-11     0s

Barrier solved model in 15 iterations and 0.04 seconds (0.03 work units)
Optimal objective 9.84420152e+01

Crossover log...

     707 DPushes remaining with DInf 0.0000000e+00                 0s
       0 DPushes remaining with DInf 0.0000000e+00                 0s

     100 PPushes remaining with PInf 0.0000000e+00                 0s
       0 PPushes remaining with PInf 0.0000000e+00                 0s

  Push phase complete: Pinf 0.0000000e+00, Dinf 2.7135976e-13      0s

Iteration    Objective       Primal Inf.    Dual Inf.      Time
     136    9.8442015e+01   0.000000e+00   0.000000e+00      0s

Solved in 136 iterations and 0.05 seconds (0.04 work units)
Optimal objective  9.844201495e+01
